45
1000
200	2
199	3
198	4
197	5
196	2
195	1
194	4
193	3
192	1
191	1
190	1
189	1
188	4
187	2
186	3
184	4
183	1
180	1
179	2
178	2
177	1
176	3
175	6
174	1
173	3
172	3
171	1
170	3
169	3
167	2
166	4
165	1
164	2
163	2
162	2
161	3
159	3
158	1
156	5
155	8
154	2
153	1
152	8
151	2
150	3
